NAME : portcgen-23-13
COMMENT : portcgen N=23, seed=13
TYPE : TSP
DIMENSION : 23
EDGE_WEIGHT_TYPE : EUC_2D
NODE_COORD_SECTION
1 182396 -136048
2 -169648 53373
3 215587 -171981
4 110425 218244
5 -105591 53407
6 115092 949208
7 208685 170713
8 -216751 -135185
9 263915 -184777
10 -94573 -243499
11 54320 -64923
12 -105645 -85593
13 -120802 53977
14 -289390 -126737
15 -144607 -85087
16 60536 -114772
17 258272 248822
18 38109 -156725
19 28313 61610
20 -178330 449721
21 -179679 -237643
22 -396877 264643
23 -277612 104813
